experiments/eusolverbv/1/DirectTrainGenes/0001001101010011111011000100010100100111100/20_.out
(define-fun f ((x (BitVec 64))) (BitVec 64)
     (func43 (bvnot x)))
0.4580211639404297
